n = 9;
color = {
  '🟥', % red
  '🟦', % blue
  '🟩', % green
  '🟨', % yellow
  '🟪', % purple
  '⬜', % pink
  '⬛', % grey
  '🟫', % brown
  '🟧', % orange
};
board =
[|'🟪','🟪','🟪','🟪','🟧','🟪','🟪','🟪','🟪',
 |'🟪','🟦','🟦','🟪','🟧','🟪','🟩','🟩','🟪',
 |'🟪','🟦','🟦','🟪','🟪','🟪','⬛','⬛','🟪',
 |'🟪','🟪','🟦','🟦','🟦','🟥','🟥','⬛','🟪',
 |'🟨','🟪','🟪','🟪','🟪','🟥','🟪','🟪','🟪',
 |'🟨','🟨','🟨','🟨','🟪','🟥','🟥','🟥','🟥',
 |'🟨','🟨','🟫','🟨','🟪','🟪','🟪','🟥','🟥',
 |'🟨','🟫','🟫','🟫','⬜','⬜','🟪','🟪','🟥',
 |'🟨','🟨','🟨','🟨','🟨','🟨','🟨','🟪','🟪',
 |];
